nvertices = 19;
owners = [1,0,0,1,0,0,1,1,0,0,1,0,0,1,0,1,0,1,0];
priors = [2,1,2,2,1,2,2,4,3,4,4,3,4,4,6,5,6,5,6];
nedges = 40;
sources = [0,0,1,2,2,2,3,3,3,4,5,5,5,6,7,7,8,9,9,9,10,10,10,11,12,12,12,13,14,15,15,15,15,16,16,17,17,17,17,18];
targets = [1,2,2,0,3,15,2,4,5,5,3,6,17,5,8,9,9,7,10,15,9,11,12,12,10,13,17,12,15,14,16,2,9,15,17,16,18,5,12,17];
weights = [0,0,0,0,0,0,0,0,0,0,0,0,0,0,0,0,0,0,0,0,0,0,0,0,0,0,0,0,0,0,0,0,0,0,0,0,0,0,0,0];

